(declare-fun var0 () String)
(assert (str.in.re var0 (re.++ (re.+ (re.+ (str.to.re "--"))) (re.++ (re.union (re.union (str.to.re "*") (str.to.re "++")) (re.* (str.to.re ",,"))) (re.++ (re.+ (re.union (str.to.re "(((") (str.to.re ")"))) (re.++ (re.* (re.+ (str.to.re "'"))) (re.++ (re.* (re.union (str.to.re "%%%") (str.to.re "&"))) (re.++ (re.+ (re.* (str.to.re "$"))) (re.++ (re.union (re.union (str.to.re "!") (str.to.re """")) (re.+ (str.to.re "#"))) (re.++ (re.union (re.* (str.to.re "Y")) (re.+ (str.to.re "Z"))) (re.++ (re.* (re.+ (str.to.re "XX"))) (re.++ (re.+ (re.* (str.to.re "WWW"))) (re.++ (re.* (re.union (str.to.re "UU") (str.to.re "VV"))) (re.++ (re.+ (re.+ (str.to.re "T"))) (re.++ (re.* (re.* (str.to.re "SS"))) (re.++ (re.+ (re.+ (str.to.re "R"))) (re.++ (re.* (re.union (str.to.re "P") (str.to.re "QQQ"))) (re.++ (re.union (re.union (str.to.re "M") (str.to.re "N")) (re.* (str.to.re "OO"))) (re.++ (re.* (re.union (str.to.re "KKK") (str.to.re "LLL"))) (re.++ (re.union (re.* (str.to.re "HH")) (re.union (str.to.re "I") (str.to.re "JJJ"))) (re.++ (re.+ (re.union (str.to.re "FF") (str.to.re "G"))) (re.++ (re.+ (re.union (str.to.re "DDD") (str.to.re "E"))) (re.++ (re.* (re.+ (str.to.re "CC"))) (re.++ (re.union (re.+ (str.to.re "zz")) (re.union (str.to.re "AA") (str.to.re "BBB"))) (re.++ (re.union (re.* (str.to.re "x")) (re.+ (str.to.re "y"))) (re.++ (re.union (re.+ (str.to.re "u")) (re.union (str.to.re "v") (str.to.re "www"))) (re.++ (re.* (re.union (str.to.re "sss") (str.to.re "t"))) (re.++ (re.* (re.+ (str.to.re "rr"))) (re.++ (re.+ (re.* (str.to.re "q"))) (re.++ (re.union (re.union (str.to.re "nn") (str.to.re "oo")) (re.* (str.to.re "p"))) (re.++ (re.+ (re.* (str.to.re "mmm"))) (re.++ (re.union (re.+ (str.to.re "jjj")) (re.union (str.to.re "kk") (str.to.re "ll"))) (re.++ (re.* (re.* (str.to.re "iii"))) (re.++ (re.union (re.* (str.to.re "ggg")) (re.+ (str.to.re "h"))) (re.++ (re.* (re.* (str.to.re "f"))) (re.++ (re.* (re.+ (str.to.re "eee"))) (re.++ (re.* (re.+ (str.to.re "ddd"))) (re.++ (re.+ (re.+ (str.to.re "cc"))) (re.++ (re.union (re.* (str.to.re "999")) (re.union (str.to.re "aaa") (str.to.re "b"))) (re.++ (re.* (re.+ (str.to.re "888"))) (re.++ (re.+ (re.+ (str.to.re "77"))) (re.++ (re.+ (re.* (str.to.re "666"))) (re.++ (re.+ (re.+ (str.to.re "5"))) (re.++ (re.* (re.* (str.to.re "444"))) (re.union (re.union (str.to.re "0") (str.to.re "111")) (re.union (str.to.re "2") (str.to.re "3")))))))))))))))))))))))))))))))))))))))))))))))
(check-sat)